p cnf 963 2472
51 -696 -1 0
-51 696 0
-51 1 0
52 -51 -3 0
-52 51 0
-52 3 0
53 -697 -4 0
-53 697 0
-53 4 0
54 -53 -6 0
-54 53 0
-54 6 0
55 -698 -699 0
-55 698 0
-55 699 0
56 -8 -700 0
-56 8 0
-56 700 0
57 -56 -701 0
-57 56 0
-57 701 0
58 -702 -55 0
-58 702 0
-58 55 0
59 -703 -10 0
-59 703 0
-59 10 0
60 -59 -704 0
-60 59 0
-60 704 0
61 -705 -58 0
-61 705 0
-61 58 0
62 -13 -700 0
-62 13 0
-62 700 0
63 -62 -701 0
-63 62 0
-63 701 0
64 -706 -61 0
-64 706 0
-64 61 0
65 -707 -1 0
-65 707 0
-65 1 0
66 -65 -15 0
-66 65 0
-66 15 0
67 -708 -64 0
-67 708 0
-67 64 0
68 -709 -16 0
-68 709 0
-68 16 0
69 -68 -710 0
-69 68 0
-69 710 0
70 -711 -67 0
-70 711 0
-70 67 0
71 -19 -712 0
-71 19 0
-71 712 0
72 -71 -713 0
-72 71 0
-72 713 0
73 -714 -70 0
-73 714 0
-73 70 0
74 -22 -21 0
-74 22 0
-74 21 0
75 -74 -18 0
-75 74 0
-75 18 0
76 -715 -73 0
-76 715 0
-76 73 0
77 -23 -712 0
-77 23 0
-77 712 0
78 -77 -24 0
-78 77 0
-78 24 0
79 -716 -76 0
-79 716 0
-79 76 0
80 -717 -7 0
-80 717 0
-80 7 0
81 -80 -718 0
-81 80 0
-81 718 0
82 -719 -79 0
-82 719 0
-82 79 0
83 -28 -720 0
-83 28 0
-83 720 0
84 -83 -11 0
-84 83 0
-84 11 0
85 -721 -82 0
-85 721 0
-85 82 0
86 -27 -712 0
-86 27 0
-86 712 0
87 -86 -703 0
-87 86 0
-87 703 0
88 -722 -85 0
-88 722 0
-88 85 0
89 -27 -723 0
-89 27 0
-89 723 0
90 -89 -724 0
-90 89 0
-90 724 0
91 -725 -88 0
-91 725 0
-91 88 0
92 -8 -726 0
-92 8 0
-92 726 0
93 -92 -30 0
-93 92 0
-93 30 0
94 -727 -91 0
-94 727 0
-94 91 0
95 -728 -1 0
-95 728 0
-95 1 0
96 -95 -19 0
-96 95 0
-96 19 0
97 -729 -94 0
-97 729 0
-97 94 0
98 -27 -15 0
-98 27 0
-98 15 0
99 -98 -730 0
-99 98 0
-99 730 0
100 -731 -97 0
-100 731 0
-100 97 0
101 -732 -16 0
-101 732 0
-101 16 0
102 -101 -733 0
-102 101 0
-102 733 0
103 -734 -100 0
-103 734 0
-103 100 0
104 -735 -736 0
-104 735 0
-104 736 0
105 -104 -35 0
-105 104 0
-105 35 0
106 -737 -103 0
-106 737 0
-106 103 0
107 -36 -9 0
-107 36 0
-107 9 0
108 -107 -18 0
-108 107 0
-108 18 0
109 -738 -106 0
-109 738 0
-109 106 0
110 -37 -4 0
-110 37 0
-110 4 0
111 -110 -739 0
-111 110 0
-111 739 0
112 -740 -109 0
-112 740 0
-112 109 0
113 -37 -6 0
-113 37 0
-113 6 0
114 -113 -730 0
-114 113 0
-114 730 0
115 -741 -112 0
-115 741 0
-115 112 0
116 -720 -713 0
-116 720 0
-116 713 0
117 -116 -696 0
-117 116 0
-117 696 0
118 -742 -115 0
-118 742 0
-118 115 0
119 -743 -24 0
-119 743 0
-119 24 0
120 -119 -733 0
-120 119 0
-120 733 0
121 -744 -118 0
-121 744 0
-121 118 0
122 -745 -736 0
-122 745 0
-122 736 0
123 -122 -746 0
-123 122 0
-123 746 0
124 -747 -121 0
-124 747 0
-124 121 0
125 -20 -748 0
-125 20 0
-125 748 0
126 -125 -40 0
-126 125 0
-126 40 0
127 -749 -124 0
-127 749 0
-127 124 0
128 -25 -19 0
-128 25 0
-128 19 0
129 -128 -750 0
-129 128 0
-129 750 0
130 -751 -127 0
-130 751 0
-130 127 0
131 -732 -19 0
-131 732 0
-131 19 0
132 -131 -736 0
-132 131 0
-132 736 0
133 -752 -130 0
-133 752 0
-133 130 0
134 -31 -696 0
-134 31 0
-134 696 0
135 -134 -40 0
-135 134 0
-135 40 0
136 -753 -133 0
-136 753 0
-136 133 0
137 -36 -17 0
-137 36 0
-137 17 0
138 -137 -743 0
-138 137 0
-138 743 0
139 -754 -136 0
-139 754 0
-139 136 0
140 -31 -7 0
-140 31 0
-140 7 0
141 -140 -6 0
-141 140 0
-141 6 0
142 -755 -139 0
-142 755 0
-142 139 0
143 -39 -17 0
-143 39 0
-143 17 0
144 -143 -713 0
-144 143 0
-144 713 0
145 -756 -142 0
-145 756 0
-145 142 0
146 -712 -1 0
-146 712 0
-146 1 0
147 -146 -757 0
-147 146 0
-147 757 0
148 -758 -145 0
-148 758 0
-148 145 0
149 -759 -760 0
-149 759 0
-149 760 0
150 -149 -43 0
-150 149 0
-150 43 0
151 -761 -148 0
-151 761 0
-151 148 0
152 -762 -41 0
-152 762 0
-152 41 0
153 -152 -30 0
-153 152 0
-153 30 0
154 -763 -151 0
-154 763 0
-154 151 0
155 -119 -3 0
-155 119 0
-155 3 0
156 -764 -154 0
-156 764 0
-156 154 0
157 -45 -33 0
-157 45 0
-157 33 0
158 -157 -37 0
-158 157 0
-158 37 0
159 -765 -156 0
-159 765 0
-159 156 0
160 -20 -17 0
-160 20 0
-160 17 0
161 -160 -739 0
-161 160 0
-161 739 0
162 -766 -159 0
-162 766 0
-162 159 0
163 -767 -31 0
-163 767 0
-163 31 0
164 -163 -46 0
-164 163 0
-164 46 0
165 -768 -162 0
-165 768 0
-165 162 0
166 -732 -769 0
-166 732 0
-166 769 0
167 -166 -735 0
-167 166 0
-167 735 0
168 -770 -165 0
-168 770 0
-168 165 0
169 -28 -707 0
-169 28 0
-169 707 0
170 -169 -4 0
-170 169 0
-170 4 0
171 -771 -168 0
-171 771 0
-171 168 0
172 -21 -703 0
-172 21 0
-172 703 0
173 -172 -3 0
-173 172 0
-173 3 0
174 -772 -171 0
-174 772 0
-174 171 0
175 -773 -14 0
-175 773 0
-175 14 0
176 -175 -40 0
-176 175 0
-176 40 0
177 -774 -174 0
-177 774 0
-177 174 0
178 -757 -14 0
-178 757 0
-178 14 0
179 -178 -35 0
-179 178 0
-179 35 0
180 -775 -177 0
-180 775 0
-180 177 0
181 -724 -726 0
-181 724 0
-181 726 0
182 -181 -23 0
-182 181 0
-182 23 0
183 -776 -180 0
-183 776 0
-183 180 0
184 -703 -697 0
-184 703 0
-184 697 0
185 -184 -3 0
-185 184 0
-185 3 0
186 -777 -183 0
-186 777 0
-186 183 0
187 -735 -28 0
-187 735 0
-187 28 0
188 -187 -24 0
-188 187 0
-188 24 0
189 -778 -186 0
-189 778 0
-189 186 0
190 -15 -701 0
-190 15 0
-190 701 0
191 -190 -47 0
-191 190 0
-191 47 0
192 -779 -189 0
-192 779 0
-192 189 0
193 -17 -701 0
-193 17 0
-193 701 0
194 -193 -780 0
-194 193 0
-194 780 0
195 -781 -192 0
-195 781 0
-195 192 0
196 -47 -43 0
-196 47 0
-196 43 0
197 -196 -3 0
-197 196 0
-197 3 0
198 -782 -195 0
-198 782 0
-198 195 0
199 -48 -25 0
-199 48 0
-199 25 0
200 -199 -746 0
-200 199 0
-200 746 0
201 -783 -198 0
-201 783 0
-201 198 0
202 -784 -14 0
-202 784 0
-202 14 0
203 -202 -20 0
-203 202 0
-203 20 0
204 -785 -201 0
-204 785 0
-204 201 0
205 -140 -743 0
-205 140 0
-205 743 0
206 -786 -204 0
-206 786 0
-206 204 0
207 -745 -707 0
-207 745 0
-207 707 0
208 -207 -713 0
-208 207 0
-208 713 0
209 -787 -206 0
-209 787 0
-209 206 0
210 -760 -757 0
-210 760 0
-210 757 0
211 -210 -788 0
-211 210 0
-211 788 0
212 -789 -209 0
-212 789 0
-212 209 0
213 -750 -13 0
-213 750 0
-213 13 0
214 -213 -790 0
-214 213 0
-214 790 0
215 -791 -212 0
-215 791 0
-215 212 0
216 -26 -736 0
-216 26 0
-216 736 0
217 -216 -47 0
-217 216 0
-217 47 0
218 -792 -215 0
-218 792 0
-218 215 0
219 -780 -700 0
-219 780 0
-219 700 0
220 -219 -50 0
-220 219 0
-220 50 0
221 -793 -218 0
-221 793 0
-221 218 0
222 -700 -5 0
-222 700 0
-222 5 0
223 -222 -710 0
-223 222 0
-223 710 0
224 -794 -221 0
-224 794 0
-224 221 0
225 -16 -9 0
-225 16 0
-225 9 0
226 -225 -739 0
-226 225 0
-226 739 0
227 -795 -224 0
-227 795 0
-227 224 0
228 -14 -701 0
-228 14 0
-228 701 0
229 -228 -41 0
-229 228 0
-229 41 0
230 -796 -227 0
-230 796 0
-230 227 0
231 -788 -43 0
-231 788 0
-231 43 0
232 -231 -47 0
-232 231 0
-232 47 0
233 -797 -230 0
-233 797 0
-233 230 0
234 -743 -17 0
-234 743 0
-234 17 0
235 -234 -47 0
-235 234 0
-235 47 0
236 -798 -233 0
-236 798 0
-236 233 0
237 -17 -4 0
-237 17 0
-237 4 0
238 -237 -41 0
-238 237 0
-238 41 0
239 -799 -236 0
-239 799 0
-239 236 0
240 -36 -790 0
-240 36 0
-240 790 0
241 -240 -37 0
-241 240 0
-241 37 0
242 -800 -239 0
-242 800 0
-242 239 0
243 -13 -790 0
-243 13 0
-243 790 0
244 -243 -3 0
-244 243 0
-244 3 0
245 -801 -242 0
-245 801 0
-245 242 0
246 -709 -712 0
-246 709 0
-246 712 0
247 -246 -773 0
-247 246 0
-247 773 0
248 -802 -245 0
-248 802 0
-248 245 0
249 -45 -735 0
-249 45 0
-249 735 0
250 -249 -40 0
-250 249 0
-250 40 0
251 -803 -248 0
-251 803 0
-251 248 0
252 -732 -697 0
-252 732 0
-252 697 0
253 -252 -773 0
-253 252 0
-253 773 0
254 -804 -251 0
-254 804 0
-254 251 0
255 -733 -805 0
-255 733 0
-255 805 0
256 -255 -806 0
-256 255 0
-256 806 0
257 -807 -254 0
-257 807 0
-257 254 0
258 -33 -25 0
-258 33 0
-258 25 0
259 -258 -748 0
-259 258 0
-259 748 0
260 -808 -257 0
-260 808 0
-260 257 0
261 -38 -809 0
-261 38 0
-261 809 0
262 -261 -806 0
-262 261 0
-262 806 0
263 -810 -260 0
-263 810 0
-263 260 0
264 -42 -16 0
-264 42 0
-264 16 0
265 -264 -5 0
-265 264 0
-265 5 0
266 -811 -263 0
-266 811 0
-266 263 0
267 -767 -812 0
-267 767 0
-267 812 0
268 -267 -805 0
-268 267 0
-268 805 0
269 -813 -266 0
-269 813 0
-269 266 0
270 -709 -4 0
-270 709 0
-270 4 0
271 -270 -735 0
-271 270 0
-271 735 0
272 -814 -269 0
-272 814 0
-272 269 0
273 -760 -6 0
-273 760 0
-273 6 0
274 -273 -733 0
-274 273 0
-274 733 0
275 -815 -272 0
-275 815 0
-275 272 0
276 -707 -723 0
-276 707 0
-276 723 0
277 -276 -701 0
-277 276 0
-277 701 0
278 -816 -275 0
-278 816 0
-278 275 0
279 -760 -26 0
-279 760 0
-279 26 0
280 -279 -12 0
-280 279 0
-280 12 0
281 -817 -278 0
-281 817 0
-281 278 0
282 -10 -5 0
-282 10 0
-282 5 0
283 -282 -762 0
-283 282 0
-283 762 0
284 -818 -281 0
-284 818 0
-284 281 0
285 -33 -9 0
-285 33 0
-285 9 0
286 -285 -23 0
-286 285 0
-286 23 0
287 -819 -284 0
-287 819 0
-287 284 0
288 -735 -5 0
-288 735 0
-288 5 0
289 -288 -762 0
-289 288 0
-289 762 0
290 -820 -287 0
-290 820 0
-290 287 0
291 -17 -14 0
-291 17 0
-291 14 0
292 -291 -788 0
-292 291 0
-292 788 0
293 -821 -290 0
-293 821 0
-293 290 0
294 -48 -19 0
-294 48 0
-294 19 0
295 -294 -812 0
-295 294 0
-295 812 0
296 -822 -293 0
-296 822 0
-296 293 0
297 -39 -717 0
-297 39 0
-297 717 0
298 -297 -724 0
-298 297 0
-298 724 0
299 -823 -296 0
-299 823 0
-299 296 0
300 -49 -696 0
-300 49 0
-300 696 0
301 -300 -3 0
-301 300 0
-301 3 0
302 -824 -299 0
-302 824 0
-302 299 0
303 -37 -713 0
-303 37 0
-303 713 0
304 -303 -805 0
-304 303 0
-304 805 0
305 -825 -302 0
-305 825 0
-305 302 0
306 -39 -720 0
-306 39 0
-306 720 0
307 -306 -730 0
-307 306 0
-307 730 0
308 -826 -305 0
-308 826 0
-308 305 0
309 -827 -712 0
-309 827 0
-309 712 0
310 -309 -43 0
-310 309 0
-310 43 0
311 -828 -308 0
-311 828 0
-311 308 0
312 -732 -717 0
-312 732 0
-312 717 0
313 -312 -18 0
-313 312 0
-313 18 0
314 -829 -311 0
-314 829 0
-314 311 0
315 -745 -11 0
-315 745 0
-315 11 0
316 -315 -46 0
-316 315 0
-316 46 0
317 -830 -314 0
-317 830 0
-317 314 0
318 -760 -726 0
-318 760 0
-318 726 0
319 -318 -762 0
-319 318 0
-319 762 0
320 -831 -317 0
-320 831 0
-320 317 0
321 -33 -736 0
-321 33 0
-321 736 0
322 -321 -23 0
-322 321 0
-322 23 0
323 -832 -320 0
-323 832 0
-323 320 0
324 -42 -812 0
-324 42 0
-324 812 0
325 -324 -3 0
-325 324 0
-325 3 0
326 -833 -323 0
-326 833 0
-326 323 0
327 -26 -7 0
-327 26 0
-327 7 0
328 -327 -730 0
-328 327 0
-328 730 0
329 -834 -326 0
-329 834 0
-329 326 0
330 -759 -736 0
-330 759 0
-330 736 0
331 -330 -835 0
-331 330 0
-331 835 0
332 -836 -329 0
-332 836 0
-332 329 0
333 -739 -712 0
-333 739 0
-333 712 0
334 -333 -835 0
-334 333 0
-334 835 0
335 -837 -332 0
-335 837 0
-335 332 0
336 -767 -809 0
-336 767 0
-336 809 0
337 -336 -21 0
-337 336 0
-337 21 0
338 -838 -335 0
-338 838 0
-338 335 0
339 -25 -7 0
-339 25 0
-339 7 0
340 -339 -6 0
-340 339 0
-340 6 0
341 -839 -338 0
-341 839 0
-341 338 0
342 -769 -6 0
-342 769 0
-342 6 0
343 -342 -840 0
-343 342 0
-343 840 0
344 -841 -341 0
-344 841 0
-344 341 0
345 -712 -696 0
-345 712 0
-345 696 0
346 -345 -37 0
-346 345 0
-346 37 0
347 -842 -344 0
-347 842 0
-347 344 0
348 -16 -726 0
-348 16 0
-348 726 0
349 -348 -743 0
-349 348 0
-349 743 0
350 -843 -347 0
-350 843 0
-350 347 0
351 -41 -16 0
-351 41 0
-351 16 0
352 -351 -44 0
-352 351 0
-352 44 0
353 -844 -350 0
-353 844 0
-353 350 0
354 -845 -40 0
-354 845 0
-354 40 0
355 -354 -3 0
-355 354 0
-355 3 0
356 -846 -353 0
-356 846 0
-356 353 0
357 -27 -14 0
-357 27 0
-357 14 0
358 -357 -21 0
-358 357 0
-358 21 0
359 -847 -356 0
-359 847 0
-359 356 0
360 -780 -730 0
-360 780 0
-360 730 0
361 -360 -38 0
-361 360 0
-361 38 0
362 -848 -359 0
-362 848 0
-362 359 0
363 -45 -717 0
-363 45 0
-363 717 0
364 -363 -2 0
-364 363 0
-364 2 0
365 -849 -362 0
-365 849 0
-365 362 0
366 -746 -31 0
-366 746 0
-366 31 0
367 -366 -47 0
-367 366 0
-367 47 0
368 -850 -365 0
-368 850 0
-368 365 0
369 -759 -723 0
-369 759 0
-369 723 0
370 -369 -762 0
-370 369 0
-370 762 0
371 -851 -368 0
-371 851 0
-371 368 0
372 -249 -47 0
-372 249 0
-372 47 0
373 -852 -371 0
-373 852 0
-373 371 0
374 -39 -28 0
-374 39 0
-374 28 0
375 -374 -736 0
-375 374 0
-375 736 0
376 -853 -373 0
-376 853 0
-376 373 0
377 -20 -726 0
-377 20 0
-377 726 0
378 -377 -3 0
-378 377 0
-378 3 0
379 -854 -376 0
-379 854 0
-379 376 0
380 -23 -713 0
-380 23 0
-380 713 0
381 -380 -30 0
-381 380 0
-381 30 0
382 -855 -379 0
-382 855 0
-382 379 0
383 -41 -697 0
-383 41 0
-383 697 0
384 -383 -32 0
-384 383 0
-384 32 0
385 -856 -382 0
-385 856 0
-385 382 0
386 -17 -723 0
-386 17 0
-386 723 0
387 -386 -18 0
-387 386 0
-387 18 0
388 -857 -385 0
-388 857 0
-388 385 0
389 -717 -23 0
-389 717 0
-389 23 0
390 -389 -835 0
-390 389 0
-390 835 0
391 -858 -388 0
-391 858 0
-391 388 0
392 -769 -696 0
-392 769 0
-392 696 0
393 -392 -35 0
-393 392 0
-393 35 0
394 -859 -391 0
-394 859 0
-394 391 0
395 -34 -728 0
-395 34 0
-395 728 0
396 -395 -805 0
-396 395 0
-396 805 0
397 -860 -394 0
-397 860 0
-397 394 0
398 -745 -718 0
-398 745 0
-398 718 0
399 -398 -710 0
-399 398 0
-399 710 0
400 -861 -397 0
-400 861 0
-400 397 0
401 -53 -22 0
-401 53 0
-401 22 0
402 -862 -400 0
-402 862 0
-402 400 0
403 -31 -2 0
-403 31 0
-403 2 0
404 -403 -805 0
-404 403 0
-404 805 0
405 -863 -402 0
-405 863 0
-405 402 0
406 -49 -16 0
-406 49 0
-406 16 0
407 -406 -29 0
-407 406 0
-407 29 0
408 -864 -405 0
-408 864 0
-408 405 0
409 -750 -22 0
-409 750 0
-409 22 0
410 -409 -790 0
-410 409 0
-410 790 0
411 -865 -408 0
-411 865 0
-411 408 0
412 -43 -9 0
-412 43 0
-412 9 0
413 -412 -845 0
-413 412 0
-413 845 0
414 -866 -411 0
-414 866 0
-414 411 0
415 -759 -728 0
-415 759 0
-415 728 0
416 -415 -762 0
-416 415 0
-416 762 0
417 -867 -414 0
-417 867 0
-417 414 0
418 -809 -717 0
-418 809 0
-418 717 0
419 -418 -697 0
-419 418 0
-419 697 0
420 -868 -417 0
-420 868 0
-420 417 0
421 -50 -27 0
-421 50 0
-421 27 0
422 -421 -12 0
-422 421 0
-422 12 0
423 -869 -420 0
-423 869 0
-423 420 0
424 -759 -717 0
-424 759 0
-424 717 0
425 -424 -5 0
-425 424 0
-425 5 0
426 -870 -423 0
-426 870 0
-426 423 0
427 -809 -7 0
-427 809 0
-427 7 0
428 -427 -30 0
-428 427 0
-428 30 0
429 -871 -426 0
-429 871 0
-429 426 0
430 -44 -872 0
-430 44 0
-430 872 0
431 -430 -730 0
-431 430 0
-431 730 0
432 -873 -429 0
-432 873 0
-432 429 0
433 -759 -827 0
-433 759 0
-433 827 0
434 -433 -724 0
-434 433 0
-434 724 0
435 -874 -432 0
-435 874 0
-435 432 0
436 -23 -1 0
-436 23 0
-436 1 0
437 -436 -24 0
-437 436 0
-437 24 0
438 -875 -435 0
-438 875 0
-438 435 0
439 -712 -790 0
-439 712 0
-439 790 0
440 -439 -746 0
-440 439 0
-440 746 0
441 -876 -438 0
-441 876 0
-441 438 0
442 -45 -769 0
-442 45 0
-442 769 0
443 -442 -18 0
-443 442 0
-443 18 0
444 -877 -441 0
-444 877 0
-444 441 0
445 -50 -762 0
-445 50 0
-445 762 0
446 -445 -40 0
-446 445 0
-446 40 0
447 -878 -444 0
-447 878 0
-447 444 0
448 -732 -8 0
-448 732 0
-448 8 0
449 -448 -773 0
-449 448 0
-449 773 0
450 -879 -447 0
-450 879 0
-450 447 0
451 -767 -14 0
-451 767 0
-451 14 0
452 -451 -22 0
-452 451 0
-452 22 0
453 -880 -450 0
-453 880 0
-453 450 0
454 -784 -707 0
-454 784 0
-454 707 0
455 -454 -23 0
-455 454 0
-455 23 0
456 -881 -453 0
-456 881 0
-456 453 0
457 -784 -21 0
-457 784 0
-457 21 0
458 -457 -835 0
-458 457 0
-458 835 0
459 -882 -456 0
-459 882 0
-459 456 0
460 -43 -748 0
-460 43 0
-460 748 0
461 -460 -713 0
-461 460 0
-461 713 0
462 -883 -459 0
-462 883 0
-462 459 0
463 -759 -773 0
-463 759 0
-463 773 0
464 -463 -43 0
-464 463 0
-464 43 0
465 -884 -462 0
-465 884 0
-465 462 0
466 -22 -726 0
-466 22 0
-466 726 0
467 -466 -12 0
-467 466 0
-467 12 0
468 -885 -465 0
-468 885 0
-468 465 0
469 -37 -809 0
-469 37 0
-469 809 0
470 -469 -733 0
-470 469 0
-470 733 0
471 -886 -468 0
-471 886 0
-471 468 0
472 -43 -5 0
-472 43 0
-472 5 0
473 -472 -806 0
-473 472 0
-473 806 0
474 -887 -471 0
-474 887 0
-474 471 0
475 -34 -723 0
-475 34 0
-475 723 0
476 -475 -6 0
-476 475 0
-476 6 0
477 -888 -474 0
-477 888 0
-477 474 0
478 -34 -17 0
-478 34 0
-478 17 0
479 -478 -12 0
-479 478 0
-479 12 0
480 -889 -477 0
-480 889 0
-480 477 0
481 -845 -703 0
-481 845 0
-481 703 0
482 -481 -872 0
-482 481 0
-482 872 0
483 -890 -480 0
-483 890 0
-483 480 0
484 -28 -700 0
-484 28 0
-484 700 0
485 -484 -3 0
-485 484 0
-485 3 0
486 -891 -483 0
-486 891 0
-486 483 0
487 -759 -718 0
-487 759 0
-487 718 0
488 -487 -710 0
-488 487 0
-488 710 0
489 -892 -486 0
-489 892 0
-489 486 0
490 -21 -713 0
-490 21 0
-490 713 0
491 -490 -746 0
-491 490 0
-491 746 0
492 -893 -489 0
-492 893 0
-492 489 0
493 -39 -25 0
-493 39 0
-493 25 0
494 -493 -32 0
-494 493 0
-494 32 0
495 -894 -492 0
-495 894 0
-495 492 0
496 -20 -701 0
-496 20 0
-496 701 0
497 -496 -805 0
-497 496 0
-497 805 0
498 -895 -495 0
-498 895 0
-498 495 0
499 -728 -701 0
-499 728 0
-499 701 0
500 -499 -32 0
-500 499 0
-500 32 0
501 -896 -498 0
-501 896 0
-501 498 0
502 -732 -17 0
-502 732 0
-502 17 0
503 -502 -18 0
-503 502 0
-503 18 0
504 -897 -501 0
-504 897 0
-504 501 0
505 -27 -26 0
-505 27 0
-505 26 0
506 -505 -739 0
-506 505 0
-506 739 0
507 -898 -504 0
-507 898 0
-507 504 0
508 -30 -13 0
-508 30 0
-508 13 0
509 -508 -806 0
-509 508 0
-509 806 0
510 -899 -507 0
-510 899 0
-510 507 0
511 -427 -29 0
-511 427 0
-511 29 0
512 -900 -510 0
-512 900 0
-512 510 0
513 -760 -724 0
-513 760 0
-513 724 0
514 -513 -40 0
-514 513 0
-514 40 0
515 -901 -512 0
-515 901 0
-515 512 0
516 -48 -3 0
-516 48 0
-516 3 0
517 -516 -704 0
-517 516 0
-517 704 0
518 -902 -515 0
-518 902 0
-518 515 0
519 -701 -700 0
-519 701 0
-519 700 0
520 -519 -49 0
-520 519 0
-520 49 0
521 -903 -518 0
-521 903 0
-521 518 0
522 -812 -19 0
-522 812 0
-522 19 0
523 -522 -790 0
-523 522 0
-523 790 0
524 -904 -521 0
-524 904 0
-524 521 0
525 -11 -7 0
-525 11 0
-525 7 0
526 -525 -9 0
-526 525 0
-526 9 0
527 -905 -524 0
-527 905 0
-527 524 0
528 -767 -10 0
-528 767 0
-528 10 0
529 -528 -37 0
-529 528 0
-529 37 0
530 -906 -527 0
-530 906 0
-530 527 0
531 -717 -697 0
-531 717 0
-531 697 0
532 -531 -3 0
-532 531 0
-532 3 0
533 -907 -530 0
-533 907 0
-533 530 0
534 -15 -790 0
-534 15 0
-534 790 0
535 -534 -32 0
-535 534 0
-535 32 0
536 -908 -533 0
-536 908 0
-536 533 0
537 -48 -773 0
-537 48 0
-537 773 0
538 -537 -41 0
-538 537 0
-538 41 0
539 -909 -536 0
-539 909 0
-539 536 0
540 -22 -1 0
-540 22 0
-540 1 0
541 -540 -724 0
-541 540 0
-541 724 0
542 -910 -539 0
-542 910 0
-542 539 0
543 -809 -773 0
-543 809 0
-543 773 0
544 -543 -790 0
-544 543 0
-544 790 0
545 -911 -542 0
-545 911 0
-545 542 0
546 -703 -7 0
-546 703 0
-546 7 0
547 -546 -9 0
-547 546 0
-547 9 0
548 -912 -545 0
-548 912 0
-548 545 0
549 -835 -718 0
-549 835 0
-549 718 0
550 -549 -30 0
-550 549 0
-550 30 0
551 -913 -548 0
-551 913 0
-551 548 0
552 -50 -757 0
-552 50 0
-552 757 0
553 -552 -696 0
-553 552 0
-553 696 0
554 -914 -551 0
-554 914 0
-554 551 0
555 -728 -769 0
-555 728 0
-555 769 0
556 -555 -6 0
-556 555 0
-556 6 0
557 -915 -554 0
-557 915 0
-557 554 0
558 -809 -27 0
-558 809 0
-558 27 0
559 -558 -26 0
-559 558 0
-559 26 0
560 -916 -557 0
-560 916 0
-560 557 0
561 -43 -732 0
-561 43 0
-561 732 0
562 -561 -37 0
-562 561 0
-562 37 0
563 -917 -560 0
-563 917 0
-563 560 0
564 -16 -701 0
-564 16 0
-564 701 0
565 -564 -739 0
-565 564 0
-565 739 0
566 -918 -563 0
-566 918 0
-566 563 0
567 -42 -713 0
-567 42 0
-567 713 0
568 -567 -696 0
-568 567 0
-568 696 0
569 -919 -566 0
-569 919 0
-569 566 0
570 -484 -718 0
-570 484 0
-570 718 0
571 -920 -569 0
-571 920 0
-571 569 0
572 -759 -25 0
-572 759 0
-572 25 0
573 -572 -30 0
-573 572 0
-573 30 0
574 -921 -571 0
-574 921 0
-574 571 0
575 -39 -22 0
-575 39 0
-575 22 0
576 -575 -23 0
-576 575 0
-576 23 0
577 -922 -574 0
-577 922 0
-577 574 0
578 -42 -748 0
-578 42 0
-578 748 0
579 -578 -30 0
-579 578 0
-579 30 0
580 -923 -577 0
-580 923 0
-580 577 0
581 -34 -31 0
-581 34 0
-581 31 0
582 -581 -12 0
-582 581 0
-582 12 0
583 -924 -580 0
-583 924 0
-583 580 0
584 -784 -18 0
-584 784 0
-584 18 0
585 -584 -743 0
-585 584 0
-585 743 0
586 -925 -583 0
-586 925 0
-586 583 0
587 -33 -27 0
-587 33 0
-587 27 0
588 -587 -812 0
-588 587 0
-588 812 0
589 -926 -586 0
-589 926 0
-589 586 0
590 -219 -12 0
-590 219 0
-590 12 0
591 -927 -589 0
-591 927 0
-591 589 0
592 -735 -700 0
-592 735 0
-592 700 0
593 -592 -23 0
-593 592 0
-593 23 0
594 -928 -591 0
-594 928 0
-594 591 0
595 -27 -773 0
-595 27 0
-595 773 0
596 -595 -49 0
-596 595 0
-596 49 0
597 -929 -594 0
-597 929 0
-597 594 0
598 -14 -769 0
-598 14 0
-598 769 0
599 -598 -806 0
-599 598 0
-599 806 0
600 -930 -597 0
-600 930 0
-600 597 0
601 -41 -809 0
-601 41 0
-601 809 0
602 -601 -743 0
-602 601 0
-602 743 0
603 -931 -600 0
-603 931 0
-603 600 0
604 -40 -728 0
-604 40 0
-604 728 0
605 -604 -12 0
-605 604 0
-605 12 0
606 -932 -603 0
-606 932 0
-606 603 0
607 -933 -735 0
-607 933 0
-607 735 0
608 -607 -704 0
-608 607 0
-608 704 0
609 -934 -606 0
-609 934 0
-609 606 0
610 -933 -7 0
-610 933 0
-610 7 0
611 -610 -760 0
-611 610 0
-611 760 0
612 -935 -609 0
-612 935 0
-612 609 0
613 -720 -717 0
-613 720 0
-613 717 0
614 -613 -773 0
-614 613 0
-614 773 0
615 -936 -612 0
-615 936 0
-615 612 0
616 -709 -769 0
-616 709 0
-616 769 0
617 -616 -780 0
-617 616 0
-617 780 0
618 -937 -615 0
-618 937 0
-618 615 0
619 -767 -4 0
-619 767 0
-619 4 0
620 -619 -769 0
-620 619 0
-620 769 0
621 -938 -618 0
-621 938 0
-621 618 0
622 -710 -8 0
-622 710 0
-622 8 0
623 -622 -704 0
-623 622 0
-623 704 0
624 -939 -621 0
-624 939 0
-624 621 0
625 -784 -760 0
-625 784 0
-625 760 0
626 -625 -790 0
-626 625 0
-626 790 0
627 -940 -624 0
-627 940 0
-627 624 0
628 -784 -9 0
-628 784 0
-628 9 0
629 -628 -773 0
-629 628 0
-629 773 0
630 -941 -627 0
-630 941 0
-630 627 0
631 -872 -31 0
-631 872 0
-631 31 0
632 -631 -835 0
-632 631 0
-632 835 0
633 -942 -630 0
-633 942 0
-633 630 0
634 -43 -17 0
-634 43 0
-634 17 0
635 -634 -710 0
-635 634 0
-635 710 0
636 -943 -633 0
-636 943 0
-636 633 0
637 -48 -8 0
-637 48 0
-637 8 0
638 -637 -21 0
-638 637 0
-638 21 0
639 -944 -636 0
-639 944 0
-639 636 0
640 -27 -4 0
-640 27 0
-640 4 0
641 -640 -709 0
-641 640 0
-641 709 0
642 -945 -639 0
-642 945 0
-642 639 0
643 -696 -726 0
-643 696 0
-643 726 0
644 -643 -3 0
-644 643 0
-644 3 0
645 -946 -642 0
-645 946 0
-645 642 0
646 -34 -25 0
-646 34 0
-646 25 0
647 -646 -697 0
-647 646 0
-647 697 0
648 -947 -645 0
-648 947 0
-648 645 0
649 -760 -22 0
-649 760 0
-649 22 0
650 -649 -739 0
-650 649 0
-650 739 0
651 -948 -648 0
-651 948 0
-651 648 0
652 -39 -732 0
-652 39 0
-652 732 0
653 -652 -790 0
-653 652 0
-653 790 0
654 -949 -651 0
-654 949 0
-654 651 0
655 -216 -805 0
-655 216 0
-655 805 0
656 -950 -654 0
-656 950 0
-656 654 0
657 -809 -720 0
-657 809 0
-657 720 0
658 -657 -784 0
-658 657 0
-658 784 0
659 -951 -656 0
-659 951 0
-659 656 0
660 -19 -709 0
-660 19 0
-660 709 0
661 -660 -696 0
-661 660 0
-661 696 0
662 -952 -659 0
-662 952 0
-662 659 0
663 -933 -19 0
-663 933 0
-663 19 0
664 -663 -710 0
-664 663 0
-664 710 0
665 -953 -662 0
-665 953 0
-665 662 0
666 -29 -11 0
-666 29 0
-666 11 0
667 -666 -35 0
-667 666 0
-667 35 0
668 -954 -665 0
-668 954 0
-668 665 0
669 -48 -745 0
-669 48 0
-669 745 0
670 -669 -736 0
-670 669 0
-670 736 0
671 -955 -668 0
-671 955 0
-671 668 0
672 -15 -10 0
-672 15 0
-672 10 0
673 -672 -18 0
-673 672 0
-673 18 0
674 -956 -671 0
-674 956 0
-674 671 0
675 -39 -769 0
-675 39 0
-675 769 0
676 -675 -835 0
-676 675 0
-676 835 0
677 -957 -674 0
-677 957 0
-677 674 0
678 -739 -7 0
-678 739 0
-678 7 0
679 -678 -40 0
-679 678 0
-679 40 0
680 -958 -677 0
-680 958 0
-680 677 0
681 -31 -16 0
-681 31 0
-681 16 0
682 -681 -748 0
-682 681 0
-682 748 0
683 -959 -680 0
-683 959 0
-683 680 0
684 -703 -700 0
-684 703 0
-684 700 0
685 -684 -757 0
-685 684 0
-685 757 0
686 -960 -683 0
-686 960 0
-686 683 0
687 -33 -710 0
-687 33 0
-687 710 0
688 -687 -835 0
-688 687 0
-688 835 0
689 -961 -686 0
-689 961 0
-689 686 0
690 -712 -703 0
-690 712 0
-690 703 0
691 -690 -746 0
-691 690 0
-691 746 0
692 -962 -689 0
-692 962 0
-692 689 0
693 -27 -748 0
-693 27 0
-693 748 0
694 -693 -48 0
-694 693 0
-694 48 0
695 -963 -692 0
-695 963 0
-695 692 0
-696 -2 0
696 2 0
-697 -5 0
697 5 0
-698 -54 0
698 54 0
-699 -52 0
699 52 0
-700 -7 0
700 7 0
-701 -9 0
701 9 0
-702 -57 0
702 57 0
-703 -11 0
703 11 0
-704 -12 0
704 12 0
-705 -60 0
705 60 0
-706 -63 0
706 63 0
-707 -14 0
707 14 0
-708 -66 0
708 66 0
-709 -17 0
709 17 0
-710 -18 0
710 18 0
-711 -69 0
711 69 0
-712 -13 0
712 13 0
-713 -20 0
713 20 0
-714 -72 0
714 72 0
-715 -75 0
715 75 0
-716 -78 0
716 78 0
-717 -25 0
717 25 0
-718 -26 0
718 26 0
-719 -81 0
719 81 0
-720 -27 0
720 27 0
-721 -84 0
721 84 0
-722 -87 0
722 87 0
-723 -8 0
723 8 0
-724 -29 0
724 29 0
-725 -90 0
725 90 0
-726 -1 0
726 1 0
-727 -93 0
727 93 0
-728 -31 0
728 31 0
-729 -96 0
729 96 0
-730 -32 0
730 32 0
-731 -99 0
731 99 0
-732 -33 0
732 33 0
-733 -30 0
733 30 0
-734 -102 0
734 102 0
-735 -34 0
735 34 0
-736 -21 0
736 21 0
-737 -105 0
737 105 0
-738 -108 0
738 108 0
-739 -23 0
739 23 0
-740 -111 0
740 111 0
-741 -114 0
741 114 0
-742 -117 0
742 117 0
-743 -38 0
743 38 0
-744 -120 0
744 120 0
-745 -39 0
745 39 0
-746 -35 0
746 35 0
-747 -123 0
747 123 0
-748 -4 0
748 4 0
-749 -126 0
749 126 0
-750 -41 0
750 41 0
-751 -129 0
751 129 0
-752 -132 0
752 132 0
-753 -135 0
753 135 0
-754 -138 0
754 138 0
-755 -141 0
755 141 0
-756 -144 0
756 144 0
-757 -15 0
757 15 0
-758 -147 0
758 147 0
-759 -42 0
759 42 0
-760 -36 0
760 36 0
-761 -150 0
761 150 0
-762 -44 0
762 44 0
-763 -153 0
763 153 0
-764 -155 0
764 155 0
-765 -158 0
765 158 0
-766 -161 0
766 161 0
-767 -45 0
767 45 0
-768 -164 0
768 164 0
-769 -10 0
769 10 0
-770 -167 0
770 167 0
-771 -170 0
771 170 0
-772 -173 0
772 173 0
-773 -19 0
773 19 0
-774 -176 0
774 176 0
-775 -179 0
775 179 0
-776 -182 0
776 182 0
-777 -185 0
777 185 0
-778 -188 0
778 188 0
-779 -191 0
779 191 0
-780 -43 0
780 43 0
-781 -194 0
781 194 0
-782 -197 0
782 197 0
-783 -200 0
783 200 0
-784 -48 0
784 48 0
-785 -203 0
785 203 0
-786 -205 0
786 205 0
-787 -208 0
787 208 0
-788 -49 0
788 49 0
-789 -211 0
789 211 0
-790 -6 0
790 6 0
-791 -214 0
791 214 0
-792 -217 0
792 217 0
-793 -220 0
793 220 0
-794 -223 0
794 223 0
-795 -226 0
795 226 0
-796 -229 0
796 229 0
-797 -232 0
797 232 0
-798 -235 0
798 235 0
-799 -238 0
799 238 0
-800 -241 0
800 241 0
-801 -244 0
801 244 0
-802 -247 0
802 247 0
-803 -250 0
803 250 0
-804 -253 0
804 253 0
-805 -24 0
805 24 0
-806 -3 0
806 3 0
-807 -256 0
807 256 0
-808 -259 0
808 259 0
-809 -28 0
809 28 0
-810 -262 0
810 262 0
-811 -265 0
811 265 0
-812 -22 0
812 22 0
-813 -268 0
813 268 0
-814 -271 0
814 271 0
-815 -274 0
815 274 0
-816 -277 0
816 277 0
-817 -280 0
817 280 0
-818 -283 0
818 283 0
-819 -286 0
819 286 0
-820 -289 0
820 289 0
-821 -292 0
821 292 0
-822 -295 0
822 295 0
-823 -298 0
823 298 0
-824 -301 0
824 301 0
-825 -304 0
825 304 0
-826 -307 0
826 307 0
-827 -16 0
827 16 0
-828 -310 0
828 310 0
-829 -313 0
829 313 0
-830 -316 0
830 316 0
-831 -319 0
831 319 0
-832 -322 0
832 322 0
-833 -325 0
833 325 0
-834 -328 0
834 328 0
-835 -47 0
835 47 0
-836 -331 0
836 331 0
-837 -334 0
837 334 0
-838 -337 0
838 337 0
-839 -340 0
839 340 0
-840 -40 0
840 40 0
-841 -343 0
841 343 0
-842 -346 0
842 346 0
-843 -349 0
843 349 0
-844 -352 0
844 352 0
-845 -50 0
845 50 0
-846 -355 0
846 355 0
-847 -358 0
847 358 0
-848 -361 0
848 361 0
-849 -364 0
849 364 0
-850 -367 0
850 367 0
-851 -370 0
851 370 0
-852 -372 0
852 372 0
-853 -375 0
853 375 0
-854 -378 0
854 378 0
-855 -381 0
855 381 0
-856 -384 0
856 384 0
-857 -387 0
857 387 0
-858 -390 0
858 390 0
-859 -393 0
859 393 0
-860 -396 0
860 396 0
-861 -399 0
861 399 0
-862 -401 0
862 401 0
-863 -404 0
863 404 0
-864 -407 0
864 407 0
-865 -410 0
865 410 0
-866 -413 0
866 413 0
-867 -416 0
867 416 0
-868 -419 0
868 419 0
-869 -422 0
869 422 0
-870 -425 0
870 425 0
-871 -428 0
871 428 0
-872 -37 0
872 37 0
-873 -431 0
873 431 0
-874 -434 0
874 434 0
-875 -437 0
875 437 0
-876 -440 0
876 440 0
-877 -443 0
877 443 0
-878 -446 0
878 446 0
-879 -449 0
879 449 0
-880 -452 0
880 452 0
-881 -455 0
881 455 0
-882 -458 0
882 458 0
-883 -461 0
883 461 0
-884 -464 0
884 464 0
-885 -467 0
885 467 0
-886 -470 0
886 470 0
-887 -473 0
887 473 0
-888 -476 0
888 476 0
-889 -479 0
889 479 0
-890 -482 0
890 482 0
-891 -485 0
891 485 0
-892 -488 0
892 488 0
-893 -491 0
893 491 0
-894 -494 0
894 494 0
-895 -497 0
895 497 0
-896 -500 0
896 500 0
-897 -503 0
897 503 0
-898 -506 0
898 506 0
-899 -509 0
899 509 0
-900 -511 0
900 511 0
-901 -514 0
901 514 0
-902 -517 0
902 517 0
-903 -520 0
903 520 0
-904 -523 0
904 523 0
-905 -526 0
905 526 0
-906 -529 0
906 529 0
-907 -532 0
907 532 0
-908 -535 0
908 535 0
-909 -538 0
909 538 0
-910 -541 0
910 541 0
-911 -544 0
911 544 0
-912 -547 0
912 547 0
-913 -550 0
913 550 0
-914 -553 0
914 553 0
-915 -556 0
915 556 0
-916 -559 0
916 559 0
-917 -562 0
917 562 0
-918 -565 0
918 565 0
-919 -568 0
919 568 0
-920 -570 0
920 570 0
-921 -573 0
921 573 0
-922 -576 0
922 576 0
-923 -579 0
923 579 0
-924 -582 0
924 582 0
-925 -585 0
925 585 0
-926 -588 0
926 588 0
-927 -590 0
927 590 0
-928 -593 0
928 593 0
-929 -596 0
929 596 0
-930 -599 0
930 599 0
-931 -602 0
931 602 0
-932 -605 0
932 605 0
-933 -46 0
933 46 0
-934 -608 0
934 608 0
-935 -611 0
935 611 0
-936 -614 0
936 614 0
-937 -617 0
937 617 0
-938 -620 0
938 620 0
-939 -623 0
939 623 0
-940 -626 0
940 626 0
-941 -629 0
941 629 0
-942 -632 0
942 632 0
-943 -635 0
943 635 0
-944 -638 0
944 638 0
-945 -641 0
945 641 0
-946 -644 0
946 644 0
-947 -647 0
947 647 0
-948 -650 0
948 650 0
-949 -653 0
949 653 0
-950 -655 0
950 655 0
-951 -658 0
951 658 0
-952 -661 0
952 661 0
-953 -664 0
953 664 0
-954 -667 0
954 667 0
-955 -670 0
955 670 0
-956 -673 0
956 673 0
-957 -676 0
957 676 0
-958 -679 0
958 679 0
-959 -682 0
959 682 0
-960 -685 0
960 685 0
-961 -688 0
961 688 0
-962 -691 0
962 691 0
-963 -694 0
963 694 0
695 0
